
******************************************************************************
This program contains Ipopt, a library for large-scale nonlinear optimization.
 Ipopt is released as open source code under the Eclipse Public License (EPL).
         For more information visit http://projects.coin-or.org/Ipopt
******************************************************************************

This is Ipopt version 3.12.4, running with linear solver mumps.
NOTE: Other linear solvers might be more efficient (see Ipopt documentation).

Number of nonzeros in equality constraint Jacobian...:        0
Number of nonzeros in inequality constraint Jacobian.:        0
Number of nonzeros in Lagrangian Hessian.............:        0

Total number of variables............................:    68921
                     variables with only lower bounds:        0
                variables with lower and upper bounds:        0
                     variables with only upper bounds:        0
Total number of equality constraints.................:        0
Total number of inequality constraints...............:        0
        inequality constraints with only lower bounds:        0
   inequality constraints with lower and upper bounds:        0
        inequality constraints with only upper bounds:        0

iter    objective    inf_pr   inf_du lg(mu)  ||d||  lg(rg) alpha_du alpha_pr  ls
   0 3.9078367e-006 0.00e+000 5.42e-003   0.0 0.00e+000    -  0.00e+000 0.00e+000   0
   1 3.3928355e-006 0.00e+000 4.96e-003 -11.0 5.42e-003    -  1.00e+000 1.00e+000f  1
   2 1.0369324e-006 0.00e+000 7.46e-004 -11.0 5.88e-002    -  1.00e+000 1.00e+000f  1

Number of Iterations....: 2

                                   (scaled)                 (unscaled)
Objective...............:  1.0369323902031907e-006   1.0369323902031907e-006
Dual infeasibility......:  7.4644652949083172e-004   7.4644652949083172e-004
Constraint violation....:  0.0000000000000000e+000   0.0000000000000000e+000
Complementarity.........:  0.0000000000000000e+000   0.0000000000000000e+000
Overall NLP error.......:  7.4644652949083172e-004   7.4644652949083172e-004


Number of objective function evaluations             = 3
Number of objective gradient evaluations             = 3
Number of equality constraint evaluations            = 0
Number of inequality constraint evaluations          = 0
Number of equality constraint Jacobian evaluations   = 0
Number of inequality constraint Jacobian evaluations = 0
Number of Lagrangian Hessian evaluations             = 0
Total CPU secs in IPOPT (w/o function evaluations)   =     40.814
Total CPU secs in NLP function evaluations           =    100.767

EXIT: Optimal Solution Found.
